86050.2
149 151 125 124 123 150 126 14 19 38 39 18 17 16 15 1 2 146 147 128 127 121 145 144 129 120 3 23 36 37 22 21 20 13 12 4 142 143 131 130 119 141 140 132 118 5 27 34 35 26 25 24 11 10 6 139 138 134 133 117 137 136 135 116 7 8 31 32 33 30 29 9 28 40 63 62 64 65 66 61 60 41 42 59 58 67 68 69 57 56 43 44 55 54 70 71 72 53 52 45 46 51 50 74 73 75 49 48 47 148 122 108 90 77 91 111 110 76 109 112 107 78 106 105 104 89 79 103 113 102 88 80 101 100 99 87 81 86 82 96 85 83 84 92 93 115 94 95 97 98 114 0 
